GEMCIT gas-phase molecule, dummy 200A cubic box (non-periodic)
   1.00000000000000
   200.0000000000    0.0000000000    0.0000000000
    0.0000000000   200.0000000000    0.0000000000
    0.0000000000    0.0000000000   200.0000000000
   N  C  O  F  H
   3  9  4  2  11
Selective dynamics
Direct
  0.5234204553456635  0.5003130258845235  0.4925136269666973   T   T   T
  0.5158687565456798  0.5075121971843118  0.4970589581967951   T   T   T
  0.5050112822471057  0.5036787253672711  0.5001261717186829   T   T   T
  0.5172637294460261  0.5013959994155152  0.4951011183979205   T   T   T
  0.5097709551086462  0.5090681759973976  0.4996246852481095   T   T   T
  0.5065532075000130  0.4973624584553064  0.4981405451948977   T   T   T
  0.5126313948686053  0.4959622733447126  0.4955569845818672   T   T   T
  0.4985909845105162  0.5051154188545377  0.5030677031344538   T   T   T
  0.4901559377447961  0.4980361439744203  0.5076106257003358   T   T   T
  0.4898189045091699  0.4905343108224912  0.5063631605766299   T   T   T
  0.4867883187607392  0.5023886151269482  0.5022276141915885   T   T   T
  0.4926768180550730  0.5051180854920286  0.4981301555770623   T   T   T
  0.5081101942336488  0.5146130944456125  0.5014884575895745   T   T   T
  0.4969866463384219  0.5002133785266724  0.5079289967892733   T   T   T
  0.4924550067924086  0.4885499359226956  0.5000959562270019   T   T   T
  0.4821112976860272  0.4986318547647946  0.4985164585895623   T   T   T
  0.4913778786970305  0.5113721180147072  0.4957517687790173   T   T   T
  0.4938673117514394  0.5012311917069298  0.4926656025593634   T   T   T
  0.5249935314524952  0.4956999332492558  0.4913413160113301   T   T   T
  0.5266965887344242  0.5041268946185463  0.4925267371349144   T   T   T
  0.5026955027955713  0.4936314330667650  0.4987983541925352   T   T   T
  0.5138901098427540  0.4909602239089018  0.4939690015111780   T   T   T
  0.4990271327273735  0.5100905665457758  0.5052546832056877   T   T   T
  0.4878793889241725  0.4990067440010786  0.5124899301867301   T   T   T
  0.4846339064784801  0.4888827600149539  0.5069705730891427   T   T   T
  0.4928490091565136  0.4880790671903955  0.5101743837495881   T   T   T
  0.4894828921768354  0.4902174356820652  0.4966739049335985   T   T   T
  0.4844053358811225  0.5067202374713273  0.5045704066424356   T   T   T
  0.4799875216892473  0.5014877009500586  0.4952621193240267   T   T   T
