  29
jmolscript: load "" {1 1 1} spacegroup "x,y,z" unitcell [{     200.0     0.0    0.0 }, {     0.0    200.0    0.0 }, {     0.0     0.0    200.0 }]
N     104.6840910691327    100.06260517690471   98.50272539333946   
N     103.17375130913595   101.50243943686237   99.41179163935901   
N     101.00225644942114   100.73574507345423   100.02523434373659  
C     103.4527458892052    100.27919988310303   99.02022367958409   
C     101.95419102172924   101.81363519947952   99.9249370496219    
C     101.31064150000259   99.47249169106128    99.62810903897955   
C     102.52627897372106   99.19245466894252    99.11139691637344   
C     99.71819690210324    101.02308377090753   100.61354062689077  
C     98.03118754895922    99.60722879488407    101.52212514006716  
C     97.96378090183397    98.10686216449824    101.27263211532598  
C     97.35766375214784    100.47772302538964   100.44552283831769  
C     98.5353636110146     101.02361709840572   99.62603111541246   
O     101.62203884672975   102.9226188891225    100.2976915179149   
O     99.39732926768437    100.04267570533447   101.58579935785465  
O     98.49100135848172    97.70998718453912    100.01919124540038  
O     96.42225953720543    99.72637095295892    99.70329171791246   
F     98.2755757394061     102.27442360294144   99.15035375580345   
F     98.77346235028787    100.24623834138595   98.53312051187268   
H     104.99870629049903   99.13998664985117    98.26826320226601   
H     105.33931774688483   100.82537892370927   98.50534742698288   
H     100.53910055911426   98.726286613353      99.75967083850705   
H     102.77802196855079   98.19204478178037    98.7938003022356    
H     99.8054265454747     102.01811330915515   101.05093664113754  
H     97.5758777848345     99.80134880021572    102.49798603734601  
H     96.92678129569602    97.77655200299078    101.39411461782855  
H     98.56980183130271    97.6158134380791     102.03487674991763  
H     97.89657843536708    98.04348713641305    99.3347809867197    
H     96.8810671762245     101.34404749426547   100.91408132848711  
H     95.99750433784946    100.29754019001172   99.05242386480533   
